Data path: /scratch/opt/lxu/CFLG/benchmarks/Kgroup_B
Instance: K400.10.con.red
Result path: /scratch/opt/lxu/CFLG/results/Kgroup_B
Solver: Gurobi
Time limit: 7200
Formulation: LEFPAD
Cover: Small
julia --project=. src/main.jl /scratch/opt/lxu/CFLG/benchmarks/Kgroup_B K400.10.con.red /scratch/opt/lxu/CFLG/results/Kgroup_B Gurobi 7200 LEFPAD Small
The latest version of Julia in the `release` channel is 1.11.5+0.x64.linux.gnu. You currently have `1.11.4+0.x64.linux.gnu` installed. Run:

  juliaup update

in your terminal shell to install Julia 1.11.5+0.x64.linux.gnu and update the `release` channel to that version.
/scratch/opt/lxu/CFLG/benchmarks/Kgroup_B Gurobi 7200.0 /scratch/opt/lxu/CFLG/results/Kgroup_B K400.10.con.red LEFPAD Small
/scratch/opt/lxu/CFLG/benchmarks/Kgroup_B/K400.10.con.red

 read graph
data loaded


after absorb:220 221

max_piece:30
problem_graph/original graph: node: 333/221 edge: 1035/923 dlt: 0.03522927822971286 break_avg_len: 0.12566811132763275 break_max_len: 1.0Vbar/V, Ebar/E(333, 333, 1035, 1035)
Set parameter TokenServer to value "solice01.zib.de"
Set parameter Threads to value 1
Set parameter OutputFlag to value 1
Gurobi Optimizer version 12.0.1 build v12.0.1rc0 (linux64 - "Debian GNU/Linux 12 (bookworm)")

CPU model: Intel(R) Xeon(R) Gold 5122 CPU @ 3.60GHz, instruction set [SSE2|AVX|AVX2|AVX512]
Thread count: 8 physical cores, 16 logical processors, using up to 1 threads

Non-default parameters:
Threads  1

Optimize a model with 1368 rows, 3105 columns and 5175 nonzeros
Model fingerprint: 0x95c1c253
Coefficient statistics:
  Matrix range     [1e+00, 1e+00]
  Objective range  [1e+00, 1e+00]
  Bounds range     [1e+00, 1e+00]
  RHS range        [0e+00, 0e+00]
Presolve removed 1368 rows and 3105 columns
Presolve time: 0.00s
Presolve: All rows and columns removed
Iteration    Objective       Primal Inf.    Dual Inf.      Time
       0   -0.0000000e+00   0.000000e+00   0.000000e+00      0s

Solved in 0 iterations and 0.00 seconds (0.00 work units)
Optimal objective -0.000000000e+00

User-callback calls 35, time in user-callback 0.01 sec
elapsed CPU time: 1.542702 seconds
Set parameter TokenServer to value "solice01.zib.de"
Set parameter Threads to value 1
Set parameter OutputFlag to value 1
Set parameter MIPGap to value 0.0001
Set parameter MIPGapAbs to value 0.999998
Set parameter TimeLimit to value 7198.457298

 more cuts: false 0.03522927822971286 false
is_attach:trueformulation:LEFPAD0 1035 0

 model loaded

Gurobi Optimizer version 12.0.1 build v12.0.1rc0 (linux64 - "Debian GNU/Linux 12 (bookworm)")

CPU model: Intel(R) Xeon(R) Gold 5122 CPU @ 3.60GHz, instruction set [SSE2|AVX|AVX2|AVX512]
Thread count: 8 physical cores, 16 logical processors, using up to 1 threads

Non-default parameters:
TimeLimit  7198.457298
MIPGapAbs  0.999998
Threads  1

Optimize a model with 22259 rows, 16741 columns and 62340 nonzeros
Model fingerprint: 0x0697f883
Variable types: 8204 continuous, 8537 integer (8537 binary)
Coefficient statistics:
  Matrix range     [4e-08, 1e+00]
  Objective range  [1e+00, 1e+00]
  Bounds range     [5e-04, 1e+00]
  RHS range        [5e-04, 1e+00]
Found heuristic solution: objective 1011.0000000
Presolve removed 11665 rows and 4330 columns
Presolve time: 0.15s
Presolved: 10594 rows, 12411 columns, 39545 nonzeros
Variable types: 6606 continuous, 5805 integer (5805 binary)

Root relaxation: objective 7.610000e+02, 4943 iterations, 0.05 seconds (0.05 work units)

    Nodes    |    Current Node    |     Objective Bounds      |     Work
 Expl Unexpl |  Obj  Depth IntInf | Incumbent    BestBd   Gap | It/Node Time

     0     0  761.00000    0   17 1011.00000  761.00000  24.7%     -    0s
     0     0  761.00000    0   17 1011.00000  761.00000  24.7%     -    0s
H    0     0                    1007.0000000  761.00000  24.4%     -    0s
H    0     0                    1005.0000000  761.00000  24.3%     -    0s
H    0     0                     965.0000000  761.00000  21.1%     -    0s
     0     0  761.00000    0    4  965.00000  761.00000  21.1%     -    0s
H    0     0                     761.0000000  761.00000  0.00%     -    0s
     0     0  761.00000    0    4  761.00000  761.00000  0.00%     -    0s

Cutting planes:
  Gomory: 5
  Cover: 3
  Implied bound: 1
  MIR: 6
  Flow cover: 6

Explored 1 nodes (6059 simplex iterations) in 0.45 seconds (0.30 work units)
Thread count was 1 (of 16 available processors)

Solution count 6: 761 761 965 ... 1011

Optimal solution found (tolerance 1.00e-04)
Best objective 7.610000000000e+02, best bound 7.610000000000e+02, gap 0.0000%

User-callback calls 475, time in user-callback 0.00 sec

 sepatime0 0 0
761.0Stat(MathOptInterface.OPTIMAL, 761.0, 761.0, 0.0, 0.0, 1.542702, 0.44783782958984375, 1, Main.CFLG.LEFPAD, "", #undef)
